	Maximize
    obj: x1 + x2 + 2x3 + 2x4

    Subject To
    x1 + x2 + x3 + x4 =< 1200
    x1 + x3 <= 500
    x1 + x2 <= 800
	x1 + 2x2 <=	0
	-2x3 - 3x2 <= 0

    x1 >= 0
    x2 >= 0
    x3 >= 0
	x4 >= 0


    Generals
    x1
    x2
    x3
	x4
	
	End